223284
223284
220506
220506
220506
220506
213610
213610
213610
213610
213610
213610
213610
212347
212347
212347
212347
207710
207710
207409
207409
207240
207153
204623
204623
203752
201890
201890
201890
201890
200950
200651
200651
198550
198550
198550
198550
198550
197928
197928
197796
197796
197796
196454
196454
196454
196454
196454
196454
196454
196454
196454
196454
196454
196454
195719
195719
195719
195106
195106
195106
195106
195106
195106
195106
193418
193418
193418
193418
193418
193418
193418
193418
193418
193418
193418
193418
193418
193418
193418
193418
193418
193418
193418
193418
193418
193418
193418
193418
193418
193418
192204
192204
192204
192204
192204
192204
192204
192204
192204
